c created by edge2cnf
p cnf 500 3100
-1 -2 0
-1 -3 0
-1 -4 0
-1 -5 0
-2 -3 0
-2 -4 0
-2 -5 0
-3 -4 0
-3 -5 0
-4 -5 0
1 2 3 4 5 0
-6 -7 0
-6 -8 0
-6 -9 0
-6 -10 0
-7 -8 0
-7 -9 0
-7 -10 0
-8 -9 0
-8 -10 0
-9 -10 0
6 7 8 9 10 0
-11 -12 0
-11 -13 0
-11 -14 0
-11 -15 0
-12 -13 0
-12 -14 0
-12 -15 0
-13 -14 0
-13 -15 0
-14 -15 0
11 12 13 14 15 0
-16 -17 0
-16 -18 0
-16 -19 0
-16 -20 0
-17 -18 0
-17 -19 0
-17 -20 0
-18 -19 0
-18 -20 0
-19 -20 0
16 17 18 19 20 0
-21 -22 0
-21 -23 0
-21 -24 0
-21 -25 0
-22 -23 0
-22 -24 0
-22 -25 0
-23 -24 0
-23 -25 0
-24 -25 0
21 22 23 24 25 0
-26 -27 0
-26 -28 0
-26 -29 0
-26 -30 0
-27 -28 0
-27 -29 0
-27 -30 0
-28 -29 0
-28 -30 0
-29 -30 0
26 27 28 29 30 0
-31 -32 0
-31 -33 0
-31 -34 0
-31 -35 0
-32 -33 0
-32 -34 0
-32 -35 0
-33 -34 0
-33 -35 0
-34 -35 0
31 32 33 34 35 0
-36 -37 0
-36 -38 0
-36 -39 0
-36 -40 0
-37 -38 0
-37 -39 0
-37 -40 0
-38 -39 0
-38 -40 0
-39 -40 0
36 37 38 39 40 0
-41 -42 0
-41 -43 0
-41 -44 0
-41 -45 0
-42 -43 0
-42 -44 0
-42 -45 0
-43 -44 0
-43 -45 0
-44 -45 0
41 42 43 44 45 0
-46 -47 0
-46 -48 0
-46 -49 0
-46 -50 0
-47 -48 0
-47 -49 0
-47 -50 0
-48 -49 0
-48 -50 0
-49 -50 0
46 47 48 49 50 0
-51 -52 0
-51 -53 0
-51 -54 0
-51 -55 0
-52 -53 0
-52 -54 0
-52 -55 0
-53 -54 0
-53 -55 0
-54 -55 0
51 52 53 54 55 0
-56 -57 0
-56 -58 0
-56 -59 0
-56 -60 0
-57 -58 0
-57 -59 0
-57 -60 0
-58 -59 0
-58 -60 0
-59 -60 0
56 57 58 59 60 0
-61 -62 0
-61 -63 0
-61 -64 0
-61 -65 0
-62 -63 0
-62 -64 0
-62 -65 0
-63 -64 0
-63 -65 0
-64 -65 0
61 62 63 64 65 0
-66 -67 0
-66 -68 0
-66 -69 0
-66 -70 0
-67 -68 0
-67 -69 0
-67 -70 0
-68 -69 0
-68 -70 0
-69 -70 0
66 67 68 69 70 0
-71 -72 0
-71 -73 0
-71 -74 0
-71 -75 0
-72 -73 0
-72 -74 0
-72 -75 0
-73 -74 0
-73 -75 0
-74 -75 0
71 72 73 74 75 0
-76 -77 0
-76 -78 0
-76 -79 0
-76 -80 0
-77 -78 0
-77 -79 0
-77 -80 0
-78 -79 0
-78 -80 0
-79 -80 0
76 77 78 79 80 0
-81 -82 0
-81 -83 0
-81 -84 0
-81 -85 0
-82 -83 0
-82 -84 0
-82 -85 0
-83 -84 0
-83 -85 0
-84 -85 0
81 82 83 84 85 0
-86 -87 0
-86 -88 0
-86 -89 0
-86 -90 0
-87 -88 0
-87 -89 0
-87 -90 0
-88 -89 0
-88 -90 0
-89 -90 0
86 87 88 89 90 0
-91 -92 0
-91 -93 0
-91 -94 0
-91 -95 0
-92 -93 0
-92 -94 0
-92 -95 0
-93 -94 0
-93 -95 0
-94 -95 0
91 92 93 94 95 0
-96 -97 0
-96 -98 0
-96 -99 0
-96 -100 0
-97 -98 0
-97 -99 0
-97 -100 0
-98 -99 0
-98 -100 0
-99 -100 0
96 97 98 99 100 0
-101 -102 0
-101 -103 0
-101 -104 0
-101 -105 0
-102 -103 0
-102 -104 0
-102 -105 0
-103 -104 0
-103 -105 0
-104 -105 0
101 102 103 104 105 0
-106 -107 0
-106 -108 0
-106 -109 0
-106 -110 0
-107 -108 0
-107 -109 0
-107 -110 0
-108 -109 0
-108 -110 0
-109 -110 0
106 107 108 109 110 0
-111 -112 0
-111 -113 0
-111 -114 0
-111 -115 0
-112 -113 0
-112 -114 0
-112 -115 0
-113 -114 0
-113 -115 0
-114 -115 0
111 112 113 114 115 0
-116 -117 0
-116 -118 0
-116 -119 0
-116 -120 0
-117 -118 0
-117 -119 0
-117 -120 0
-118 -119 0
-118 -120 0
-119 -120 0
116 117 118 119 120 0
-121 -122 0
-121 -123 0
-121 -124 0
-121 -125 0
-122 -123 0
-122 -124 0
-122 -125 0
-123 -124 0
-123 -125 0
-124 -125 0
121 122 123 124 125 0
-126 -127 0
-126 -128 0
-126 -129 0
-126 -130 0
-127 -128 0
-127 -129 0
-127 -130 0
-128 -129 0
-128 -130 0
-129 -130 0
126 127 128 129 130 0
-131 -132 0
-131 -133 0
-131 -134 0
-131 -135 0
-132 -133 0
-132 -134 0
-132 -135 0
-133 -134 0
-133 -135 0
-134 -135 0
131 132 133 134 135 0
-136 -137 0
-136 -138 0
-136 -139 0
-136 -140 0
-137 -138 0
-137 -139 0
-137 -140 0
-138 -139 0
-138 -140 0
-139 -140 0
136 137 138 139 140 0
-141 -142 0
-141 -143 0
-141 -144 0
-141 -145 0
-142 -143 0
-142 -144 0
-142 -145 0
-143 -144 0
-143 -145 0
-144 -145 0
141 142 143 144 145 0
-146 -147 0
-146 -148 0
-146 -149 0
-146 -150 0
-147 -148 0
-147 -149 0
-147 -150 0
-148 -149 0
-148 -150 0
-149 -150 0
146 147 148 149 150 0
-151 -152 0
-151 -153 0
-151 -154 0
-151 -155 0
-152 -153 0
-152 -154 0
-152 -155 0
-153 -154 0
-153 -155 0
-154 -155 0
151 152 153 154 155 0
-156 -157 0
-156 -158 0
-156 -159 0
-156 -160 0
-157 -158 0
-157 -159 0
-157 -160 0
-158 -159 0
-158 -160 0
-159 -160 0
156 157 158 159 160 0
-161 -162 0
-161 -163 0
-161 -164 0
-161 -165 0
-162 -163 0
-162 -164 0
-162 -165 0
-163 -164 0
-163 -165 0
-164 -165 0
161 162 163 164 165 0
-166 -167 0
-166 -168 0
-166 -169 0
-166 -170 0
-167 -168 0
-167 -169 0
-167 -170 0
-168 -169 0
-168 -170 0
-169 -170 0
166 167 168 169 170 0
-171 -172 0
-171 -173 0
-171 -174 0
-171 -175 0
-172 -173 0
-172 -174 0
-172 -175 0
-173 -174 0
-173 -175 0
-174 -175 0
171 172 173 174 175 0
-176 -177 0
-176 -178 0
-176 -179 0
-176 -180 0
-177 -178 0
-177 -179 0
-177 -180 0
-178 -179 0
-178 -180 0
-179 -180 0
176 177 178 179 180 0
-181 -182 0
-181 -183 0
-181 -184 0
-181 -185 0
-182 -183 0
-182 -184 0
-182 -185 0
-183 -184 0
-183 -185 0
-184 -185 0
181 182 183 184 185 0
-186 -187 0
-186 -188 0
-186 -189 0
-186 -190 0
-187 -188 0
-187 -189 0
-187 -190 0
-188 -189 0
-188 -190 0
-189 -190 0
186 187 188 189 190 0
-191 -192 0
-191 -193 0
-191 -194 0
-191 -195 0
-192 -193 0
-192 -194 0
-192 -195 0
-193 -194 0
-193 -195 0
-194 -195 0
191 192 193 194 195 0
-196 -197 0
-196 -198 0
-196 -199 0
-196 -200 0
-197 -198 0
-197 -199 0
-197 -200 0
-198 -199 0
-198 -200 0
-199 -200 0
196 197 198 199 200 0
-201 -202 0
-201 -203 0
-201 -204 0
-201 -205 0
-202 -203 0
-202 -204 0
-202 -205 0
-203 -204 0
-203 -205 0
-204 -205 0
201 202 203 204 205 0
-206 -207 0
-206 -208 0
-206 -209 0
-206 -210 0
-207 -208 0
-207 -209 0
-207 -210 0
-208 -209 0
-208 -210 0
-209 -210 0
206 207 208 209 210 0
-211 -212 0
-211 -213 0
-211 -214 0
-211 -215 0
-212 -213 0
-212 -214 0
-212 -215 0
-213 -214 0
-213 -215 0
-214 -215 0
211 212 213 214 215 0
-216 -217 0
-216 -218 0
-216 -219 0
-216 -220 0
-217 -218 0
-217 -219 0
-217 -220 0
-218 -219 0
-218 -220 0
-219 -220 0
216 217 218 219 220 0
-221 -222 0
-221 -223 0
-221 -224 0
-221 -225 0
-222 -223 0
-222 -224 0
-222 -225 0
-223 -224 0
-223 -225 0
-224 -225 0
221 222 223 224 225 0
-226 -227 0
-226 -228 0
-226 -229 0
-226 -230 0
-227 -228 0
-227 -229 0
-227 -230 0
-228 -229 0
-228 -230 0
-229 -230 0
226 227 228 229 230 0
-231 -232 0
-231 -233 0
-231 -234 0
-231 -235 0
-232 -233 0
-232 -234 0
-232 -235 0
-233 -234 0
-233 -235 0
-234 -235 0
231 232 233 234 235 0
-236 -237 0
-236 -238 0
-236 -239 0
-236 -240 0
-237 -238 0
-237 -239 0
-237 -240 0
-238 -239 0
-238 -240 0
-239 -240 0
236 237 238 239 240 0
-241 -242 0
-241 -243 0
-241 -244 0
-241 -245 0
-242 -243 0
-242 -244 0
-242 -245 0
-243 -244 0
-243 -245 0
-244 -245 0
241 242 243 244 245 0
-246 -247 0
-246 -248 0
-246 -249 0
-246 -250 0
-247 -248 0
-247 -249 0
-247 -250 0
-248 -249 0
-248 -250 0
-249 -250 0
246 247 248 249 250 0
-251 -252 0
-251 -253 0
-251 -254 0
-251 -255 0
-252 -253 0
-252 -254 0
-252 -255 0
-253 -254 0
-253 -255 0
-254 -255 0
251 252 253 254 255 0
-256 -257 0
-256 -258 0
-256 -259 0
-256 -260 0
-257 -258 0
-257 -259 0
-257 -260 0
-258 -259 0
-258 -260 0
-259 -260 0
256 257 258 259 260 0
-261 -262 0
-261 -263 0
-261 -264 0
-261 -265 0
-262 -263 0
-262 -264 0
-262 -265 0
-263 -264 0
-263 -265 0
-264 -265 0
261 262 263 264 265 0
-266 -267 0
-266 -268 0
-266 -269 0
-266 -270 0
-267 -268 0
-267 -269 0
-267 -270 0
-268 -269 0
-268 -270 0
-269 -270 0
266 267 268 269 270 0
-271 -272 0
-271 -273 0
-271 -274 0
-271 -275 0
-272 -273 0
-272 -274 0
-272 -275 0
-273 -274 0
-273 -275 0
-274 -275 0
271 272 273 274 275 0
-276 -277 0
-276 -278 0
-276 -279 0
-276 -280 0
-277 -278 0
-277 -279 0
-277 -280 0
-278 -279 0
-278 -280 0
-279 -280 0
276 277 278 279 280 0
-281 -282 0
-281 -283 0
-281 -284 0
-281 -285 0
-282 -283 0
-282 -284 0
-282 -285 0
-283 -284 0
-283 -285 0
-284 -285 0
281 282 283 284 285 0
-286 -287 0
-286 -288 0
-286 -289 0
-286 -290 0
-287 -288 0
-287 -289 0
-287 -290 0
-288 -289 0
-288 -290 0
-289 -290 0
286 287 288 289 290 0
-291 -292 0
-291 -293 0
-291 -294 0
-291 -295 0
-292 -293 0
-292 -294 0
-292 -295 0
-293 -294 0
-293 -295 0
-294 -295 0
291 292 293 294 295 0
-296 -297 0
-296 -298 0
-296 -299 0
-296 -300 0
-297 -298 0
-297 -299 0
-297 -300 0
-298 -299 0
-298 -300 0
-299 -300 0
296 297 298 299 300 0
-301 -302 0
-301 -303 0
-301 -304 0
-301 -305 0
-302 -303 0
-302 -304 0
-302 -305 0
-303 -304 0
-303 -305 0
-304 -305 0
301 302 303 304 305 0
-306 -307 0
-306 -308 0
-306 -309 0
-306 -310 0
-307 -308 0
-307 -309 0
-307 -310 0
-308 -309 0
-308 -310 0
-309 -310 0
306 307 308 309 310 0
-311 -312 0
-311 -313 0
-311 -314 0
-311 -315 0
-312 -313 0
-312 -314 0
-312 -315 0
-313 -314 0
-313 -315 0
-314 -315 0
311 312 313 314 315 0
-316 -317 0
-316 -318 0
-316 -319 0
-316 -320 0
-317 -318 0
-317 -319 0
-317 -320 0
-318 -319 0
-318 -320 0
-319 -320 0
316 317 318 319 320 0
-321 -322 0
-321 -323 0
-321 -324 0
-321 -325 0
-322 -323 0
-322 -324 0
-322 -325 0
-323 -324 0
-323 -325 0
-324 -325 0
321 322 323 324 325 0
-326 -327 0
-326 -328 0
-326 -329 0
-326 -330 0
-327 -328 0
-327 -329 0
-327 -330 0
-328 -329 0
-328 -330 0
-329 -330 0
326 327 328 329 330 0
-331 -332 0
-331 -333 0
-331 -334 0
-331 -335 0
-332 -333 0
-332 -334 0
-332 -335 0
-333 -334 0
-333 -335 0
-334 -335 0
331 332 333 334 335 0
-336 -337 0
-336 -338 0
-336 -339 0
-336 -340 0
-337 -338 0
-337 -339 0
-337 -340 0
-338 -339 0
-338 -340 0
-339 -340 0
336 337 338 339 340 0
-341 -342 0
-341 -343 0
-341 -344 0
-341 -345 0
-342 -343 0
-342 -344 0
-342 -345 0
-343 -344 0
-343 -345 0
-344 -345 0
341 342 343 344 345 0
-346 -347 0
-346 -348 0
-346 -349 0
-346 -350 0
-347 -348 0
-347 -349 0
-347 -350 0
-348 -349 0
-348 -350 0
-349 -350 0
346 347 348 349 350 0
-351 -352 0
-351 -353 0
-351 -354 0
-351 -355 0
-352 -353 0
-352 -354 0
-352 -355 0
-353 -354 0
-353 -355 0
-354 -355 0
351 352 353 354 355 0
-356 -357 0
-356 -358 0
-356 -359 0
-356 -360 0
-357 -358 0
-357 -359 0
-357 -360 0
-358 -359 0
-358 -360 0
-359 -360 0
356 357 358 359 360 0
-361 -362 0
-361 -363 0
-361 -364 0
-361 -365 0
-362 -363 0
-362 -364 0
-362 -365 0
-363 -364 0
-363 -365 0
-364 -365 0
361 362 363 364 365 0
-366 -367 0
-366 -368 0
-366 -369 0
-366 -370 0
-367 -368 0
-367 -369 0
-367 -370 0
-368 -369 0
-368 -370 0
-369 -370 0
366 367 368 369 370 0
-371 -372 0
-371 -373 0
-371 -374 0
-371 -375 0
-372 -373 0
-372 -374 0
-372 -375 0
-373 -374 0
-373 -375 0
-374 -375 0
371 372 373 374 375 0
-376 -377 0
-376 -378 0
-376 -379 0
-376 -380 0
-377 -378 0
-377 -379 0
-377 -380 0
-378 -379 0
-378 -380 0
-379 -380 0
376 377 378 379 380 0
-381 -382 0
-381 -383 0
-381 -384 0
-381 -385 0
-382 -383 0
-382 -384 0
-382 -385 0
-383 -384 0
-383 -385 0
-384 -385 0
381 382 383 384 385 0
-386 -387 0
-386 -388 0
-386 -389 0
-386 -390 0
-387 -388 0
-387 -389 0
-387 -390 0
-388 -389 0
-388 -390 0
-389 -390 0
386 387 388 389 390 0
-391 -392 0
-391 -393 0
-391 -394 0
-391 -395 0
-392 -393 0
-392 -394 0
-392 -395 0
-393 -394 0
-393 -395 0
-394 -395 0
391 392 393 394 395 0
-396 -397 0
-396 -398 0
-396 -399 0
-396 -400 0
-397 -398 0
-397 -399 0
-397 -400 0
-398 -399 0
-398 -400 0
-399 -400 0
396 397 398 399 400 0
-401 -402 0
-401 -403 0
-401 -404 0
-401 -405 0
-402 -403 0
-402 -404 0
-402 -405 0
-403 -404 0
-403 -405 0
-404 -405 0
401 402 403 404 405 0
-406 -407 0
-406 -408 0
-406 -409 0
-406 -410 0
-407 -408 0
-407 -409 0
-407 -410 0
-408 -409 0
-408 -410 0
-409 -410 0
406 407 408 409 410 0
-411 -412 0
-411 -413 0
-411 -414 0
-411 -415 0
-412 -413 0
-412 -414 0
-412 -415 0
-413 -414 0
-413 -415 0
-414 -415 0
411 412 413 414 415 0
-416 -417 0
-416 -418 0
-416 -419 0
-416 -420 0
-417 -418 0
-417 -419 0
-417 -420 0
-418 -419 0
-418 -420 0
-419 -420 0
416 417 418 419 420 0
-421 -422 0
-421 -423 0
-421 -424 0
-421 -425 0
-422 -423 0
-422 -424 0
-422 -425 0
-423 -424 0
-423 -425 0
-424 -425 0
421 422 423 424 425 0
-426 -427 0
-426 -428 0
-426 -429 0
-426 -430 0
-427 -428 0
-427 -429 0
-427 -430 0
-428 -429 0
-428 -430 0
-429 -430 0
426 427 428 429 430 0
-431 -432 0
-431 -433 0
-431 -434 0
-431 -435 0
-432 -433 0
-432 -434 0
-432 -435 0
-433 -434 0
-433 -435 0
-434 -435 0
431 432 433 434 435 0
-436 -437 0
-436 -438 0
-436 -439 0
-436 -440 0
-437 -438 0
-437 -439 0
-437 -440 0
-438 -439 0
-438 -440 0
-439 -440 0
436 437 438 439 440 0
-441 -442 0
-441 -443 0
-441 -444 0
-441 -445 0
-442 -443 0
-442 -444 0
-442 -445 0
-443 -444 0
-443 -445 0
-444 -445 0
441 442 443 444 445 0
-446 -447 0
-446 -448 0
-446 -449 0
-446 -450 0
-447 -448 0
-447 -449 0
-447 -450 0
-448 -449 0
-448 -450 0
-449 -450 0
446 447 448 449 450 0
-451 -452 0
-451 -453 0
-451 -454 0
-451 -455 0
-452 -453 0
-452 -454 0
-452 -455 0
-453 -454 0
-453 -455 0
-454 -455 0
451 452 453 454 455 0
-456 -457 0
-456 -458 0
-456 -459 0
-456 -460 0
-457 -458 0
-457 -459 0
-457 -460 0
-458 -459 0
-458 -460 0
-459 -460 0
456 457 458 459 460 0
-461 -462 0
-461 -463 0
-461 -464 0
-461 -465 0
-462 -463 0
-462 -464 0
-462 -465 0
-463 -464 0
-463 -465 0
-464 -465 0
461 462 463 464 465 0
-466 -467 0
-466 -468 0
-466 -469 0
-466 -470 0
-467 -468 0
-467 -469 0
-467 -470 0
-468 -469 0
-468 -470 0
-469 -470 0
466 467 468 469 470 0
-471 -472 0
-471 -473 0
-471 -474 0
-471 -475 0
-472 -473 0
-472 -474 0
-472 -475 0
-473 -474 0
-473 -475 0
-474 -475 0
471 472 473 474 475 0
-476 -477 0
-476 -478 0
-476 -479 0
-476 -480 0
-477 -478 0
-477 -479 0
-477 -480 0
-478 -479 0
-478 -480 0
-479 -480 0
476 477 478 479 480 0
-481 -482 0
-481 -483 0
-481 -484 0
-481 -485 0
-482 -483 0
-482 -484 0
-482 -485 0
-483 -484 0
-483 -485 0
-484 -485 0
481 482 483 484 485 0
-486 -487 0
-486 -488 0
-486 -489 0
-486 -490 0
-487 -488 0
-487 -489 0
-487 -490 0
-488 -489 0
-488 -490 0
-489 -490 0
486 487 488 489 490 0
-491 -492 0
-491 -493 0
-491 -494 0
-491 -495 0
-492 -493 0
-492 -494 0
-492 -495 0
-493 -494 0
-493 -495 0
-494 -495 0
491 492 493 494 495 0
-496 -497 0
-496 -498 0
-496 -499 0
-496 -500 0
-497 -498 0
-497 -499 0
-497 -500 0
-498 -499 0
-498 -500 0
-499 -500 0
496 497 498 499 500 0
-16 -21 0
-17 -22 0
-18 -23 0
-19 -24 0
-20 -25 0
-41 -46 0
-42 -47 0
-43 -48 0
-44 -49 0
-45 -50 0
-61 -71 0
-62 -72 0
-63 -73 0
-64 -74 0
-65 -75 0
-66 -76 0
-67 -77 0
-68 -78 0
-69 -79 0
-70 -80 0
-86 -106 0
-87 -107 0
-88 -108 0
-89 -109 0
-90 -110 0
-161 -176 0
-162 -177 0
-163 -178 0
-164 -179 0
-165 -180 0
-176 -191 0
-177 -192 0
-178 -193 0
-179 -194 0
-180 -195 0
-181 -201 0
-182 -202 0
-183 -203 0
-184 -204 0
-185 -205 0
-191 -206 0
-192 -207 0
-193 -208 0
-194 -209 0
-195 -210 0
-201 -206 0
-202 -207 0
-203 -208 0
-204 -209 0
-205 -210 0
-206 -221 0
-207 -222 0
-208 -223 0
-209 -224 0
-210 -225 0
-206 -226 0
-207 -227 0
-208 -228 0
-209 -229 0
-210 -230 0
-211 -226 0
-212 -227 0
-213 -228 0
-214 -229 0
-215 -230 0
-216 -226 0
-217 -227 0
-218 -228 0
-219 -229 0
-220 -230 0
-236 -251 0
-237 -252 0
-238 -253 0
-239 -254 0
-240 -255 0
-256 -271 0
-257 -272 0
-258 -273 0
-259 -274 0
-260 -275 0
-266 -271 0
-267 -272 0
-268 -273 0
-269 -274 0
-270 -275 0
-271 -291 0
-272 -292 0
-273 -293 0
-274 -294 0
-275 -295 0
-291 -311 0
-292 -312 0
-293 -313 0
-294 -314 0
-295 -315 0
-296 -301 0
-297 -302 0
-298 -303 0
-299 -304 0
-300 -305 0
-316 -326 0
-317 -327 0
-318 -328 0
-319 -329 0
-320 -330 0
-331 -351 0
-332 -352 0
-333 -353 0
-334 -354 0
-335 -355 0
-336 -341 0
-337 -342 0
-338 -343 0
-339 -344 0
-340 -345 0
-356 -376 0
-357 -377 0
-358 -378 0
-359 -379 0
-360 -380 0
-401 -416 0
-402 -417 0
-403 -418 0
-404 -419 0
-405 -420 0
-411 -426 0
-412 -427 0
-413 -428 0
-414 -429 0
-415 -430 0
-431 -446 0
-432 -447 0
-433 -448 0
-434 -449 0
-435 -450 0
-446 -461 0
-447 -462 0
-448 -463 0
-449 -464 0
-450 -465 0
-446 -466 0
-447 -467 0
-448 -468 0
-449 -469 0
-450 -470 0
-466 -486 0
-467 -487 0
-468 -488 0
-469 -489 0
-470 -490 0
-471 -481 0
-472 -482 0
-473 -483 0
-474 -484 0
-475 -485 0
-471 -486 0
-472 -487 0
-473 -488 0
-474 -489 0
-475 -490 0
-1 -486 0
-2 -487 0
-3 -488 0
-4 -489 0
-5 -490 0
-1 -491 0
-2 -492 0
-3 -493 0
-4 -494 0
-5 -495 0
-91 -111 0
-92 -112 0
-93 -113 0
-94 -114 0
-95 -115 0
-91 -96 0
-92 -97 0
-93 -98 0
-94 -99 0
-95 -100 0
-346 -361 0
-347 -362 0
-348 -363 0
-349 -364 0
-350 -365 0
-386 -396 0
-387 -397 0
-388 -398 0
-389 -399 0
-390 -400 0
-436 -446 0
-437 -447 0
-438 -448 0
-439 -449 0
-440 -450 0
-116 -121 0
-117 -122 0
-118 -123 0
-119 -124 0
-120 -125 0
-1 -21 0
-2 -22 0
-3 -23 0
-4 -24 0
-5 -25 0
-326 -346 0
-327 -347 0
-328 -348 0
-329 -349 0
-330 -350 0
-371 -381 0
-372 -382 0
-373 -383 0
-374 -384 0
-375 -385 0
-246 -266 0
-247 -267 0
-248 -268 0
-249 -269 0
-250 -270 0
-326 -336 0
-327 -337 0
-328 -338 0
-329 -339 0
-330 -340 0
-41 -61 0
-42 -62 0
-43 -63 0
-44 -64 0
-45 -65 0
-176 -181 0
-177 -182 0
-178 -183 0
-179 -184 0
-180 -185 0
-391 -396 0
-392 -397 0
-393 -398 0
-394 -399 0
-395 -400 0
-356 -361 0
-357 -362 0
-358 -363 0
-359 -364 0
-360 -365 0
-336 -356 0
-337 -357 0
-338 -358 0
-339 -359 0
-340 -360 0
-421 -426 0
-422 -427 0
-423 -428 0
-424 -429 0
-425 -430 0
-286 -306 0
-287 -307 0
-288 -308 0
-289 -309 0
-290 -310 0
-436 -441 0
-437 -442 0
-438 -443 0
-439 -444 0
-440 -445 0
-231 -241 0
-232 -242 0
-233 -243 0
-234 -244 0
-235 -245 0
-56 -66 0
-57 -67 0
-58 -68 0
-59 -69 0
-60 -70 0
-226 -236 0
-227 -237 0
-228 -238 0
-229 -239 0
-230 -240 0
-461 -481 0
-462 -482 0
-463 -483 0
-464 -484 0
-465 -485 0
-301 -311 0
-302 -312 0
-303 -313 0
-304 -314 0
-305 -315 0
-276 -296 0
-277 -297 0
-278 -298 0
-279 -299 0
-280 -300 0
-166 -171 0
-167 -172 0
-168 -173 0
-169 -174 0
-170 -175 0
-401 -411 0
-402 -412 0
-403 -413 0
-404 -414 0
-405 -415 0
-241 -246 0
-242 -247 0
-243 -248 0
-244 -249 0
-245 -250 0
-331 -336 0
-332 -337 0
-333 -338 0
-334 -339 0
-335 -340 0
-201 -221 0
-202 -222 0
-203 -223 0
-204 -224 0
-205 -225 0
-106 -111 0
-107 -112 0
-108 -113 0
-109 -114 0
-110 -115 0
-316 -331 0
-317 -332 0
-318 -333 0
-319 -334 0
-320 -335 0
-226 -246 0
-227 -247 0
-228 -248 0
-229 -249 0
-230 -250 0
-431 -451 0
-432 -452 0
-433 -453 0
-434 -454 0
-435 -455 0
-86 -101 0
-87 -102 0
-88 -103 0
-89 -104 0
-90 -105 0
-266 -281 0
-267 -282 0
-268 -283 0
-269 -284 0
-270 -285 0
-431 -436 0
-432 -437 0
-433 -438 0
-434 -439 0
-435 -440 0
-101 -106 0
-102 -107 0
-103 -108 0
-104 -109 0
-105 -110 0
-321 -331 0
-322 -332 0
-323 -333 0
-324 -334 0
-325 -335 0
-401 -421 0
-402 -422 0
-403 -423 0
-404 -424 0
-405 -425 0
-301 -316 0
-302 -317 0
-303 -318 0
-304 -319 0
-305 -320 0
-451 -456 0
-452 -457 0
-453 -458 0
-454 -459 0
-455 -460 0
-81 -91 0
-82 -92 0
-83 -93 0
-84 -94 0
-85 -95 0
-276 -281 0
-277 -282 0
-278 -283 0
-279 -284 0
-280 -285 0
-396 -416 0
-397 -417 0
-398 -418 0
-399 -419 0
-400 -420 0
-121 -126 0
-122 -127 0
-123 -128 0
-124 -129 0
-125 -130 0
-371 -391 0
-372 -392 0
-373 -393 0
-374 -394 0
-375 -395 0
-396 -406 0
-397 -407 0
-398 -408 0
-399 -409 0
-400 -410 0
-221 -231 0
-222 -232 0
-223 -233 0
-224 -234 0
-225 -235 0
-236 -256 0
-237 -257 0
-238 -258 0
-239 -259 0
-240 -260 0
-61 -66 0
-62 -67 0
-63 -68 0
-64 -69 0
-65 -70 0
-486 -491 0
-487 -492 0
-488 -493 0
-489 -494 0
-490 -495 0
-166 -176 0
-167 -177 0
-168 -178 0
-169 -179 0
-170 -180 0
-6 -491 0
-7 -492 0
-8 -493 0
-9 -494 0
-10 -495 0
-466 -481 0
-467 -482 0
-468 -483 0
-469 -484 0
-470 -485 0
-451 -461 0
-452 -462 0
-453 -463 0
-454 -464 0
-455 -465 0
-161 -166 0
-162 -167 0
-163 -168 0
-164 -169 0
-165 -170 0
-36 -46 0
-37 -47 0
-38 -48 0
-39 -49 0
-40 -50 0
-66 -71 0
-67 -72 0
-68 -73 0
-69 -74 0
-70 -75 0
-51 -56 0
-52 -57 0
-53 -58 0
-54 -59 0
-55 -60 0
-291 -301 0
-292 -302 0
-293 -303 0
-294 -304 0
-295 -305 0
-11 -21 0
-12 -22 0
-13 -23 0
-14 -24 0
-15 -25 0
-141 -146 0
-142 -147 0
-143 -148 0
-144 -149 0
-145 -150 0
-11 -31 0
-12 -32 0
-13 -33 0
-14 -34 0
-15 -35 0
-381 -391 0
-382 -392 0
-383 -393 0
-384 -394 0
-385 -395 0
-171 -176 0
-172 -177 0
-173 -178 0
-174 -179 0
-175 -180 0
-216 -231 0
-217 -232 0
-218 -233 0
-219 -234 0
-220 -235 0
-261 -271 0
-262 -272 0
-263 -273 0
-264 -274 0
-265 -275 0
-481 -496 0
-482 -497 0
-483 -498 0
-484 -499 0
-485 -500 0
-136 -141 0
-137 -142 0
-138 -143 0
-139 -144 0
-140 -145 0
-391 -411 0
-392 -412 0
-393 -413 0
-394 -414 0
-395 -415 0
-271 -276 0
-272 -277 0
-273 -278 0
-274 -279 0
-275 -280 0
-336 -346 0
-337 -347 0
-338 -348 0
-339 -349 0
-340 -350 0
-276 -291 0
-277 -292 0
-278 -293 0
-279 -294 0
-280 -295 0
-71 -81 0
-72 -82 0
-73 -83 0
-74 -84 0
-75 -85 0
-156 -171 0
-157 -172 0
-158 -173 0
-159 -174 0
-160 -175 0
-76 -81 0
-77 -82 0
-78 -83 0
-79 -84 0
-80 -85 0
-146 -156 0
-147 -157 0
-148 -158 0
-149 -159 0
-150 -160 0
-231 -236 0
-232 -237 0
-233 -238 0
-234 -239 0
-235 -240 0
-466 -471 0
-467 -472 0
-468 -473 0
-469 -474 0
-470 -475 0
-46 -61 0
-47 -62 0
-48 -63 0
-49 -64 0
-50 -65 0
-11 -496 0
-12 -497 0
-13 -498 0
-14 -499 0
-15 -500 0
-426 -431 0
-427 -432 0
-428 -433 0
-429 -434 0
-430 -435 0
-481 -491 0
-482 -492 0
-483 -493 0
-484 -494 0
-485 -495 0
-171 -181 0
-172 -182 0
-173 -183 0
-174 -184 0
-175 -185 0
-316 -321 0
-317 -322 0
-318 -323 0
-319 -324 0
-320 -325 0
-376 -391 0
-377 -392 0
-378 -393 0
-379 -394 0
-380 -395 0
-331 -346 0
-332 -347 0
-333 -348 0
-334 -349 0
-335 -350 0
-476 -491 0
-477 -492 0
-478 -493 0
-479 -494 0
-480 -495 0
-101 -116 0
-102 -117 0
-103 -118 0
-104 -119 0
-105 -120 0
-336 -351 0
-337 -352 0
-338 -353 0
-339 -354 0
-340 -355 0
-296 -316 0
-297 -317 0
-298 -318 0
-299 -319 0
-300 -320 0
-91 -101 0
-92 -102 0
-93 -103 0
-94 -104 0
-95 -105 0
-151 -156 0
-152 -157 0
-153 -158 0
-154 -159 0
-155 -160 0
-76 -96 0
-77 -97 0
-78 -98 0
-79 -99 0
-80 -100 0
-236 -241 0
-237 -242 0
-238 -243 0
-239 -244 0
-240 -245 0
-286 -296 0
-287 -297 0
-288 -298 0
-289 -299 0
-290 -300 0
-341 -356 0
-342 -357 0
-343 -358 0
-344 -359 0
-345 -360 0
-216 -236 0
-217 -237 0
-218 -238 0
-219 -239 0
-220 -240 0
-196 -206 0
-197 -207 0
-198 -208 0
-199 -209 0
-200 -210 0
-136 -146 0
-137 -147 0
-138 -148 0
-139 -149 0
-140 -150 0
-416 -426 0
-417 -427 0
-418 -428 0
-419 -429 0
-420 -430 0
-6 -21 0
-7 -22 0
-8 -23 0
-9 -24 0
-10 -25 0
-101 -121 0
-102 -122 0
-103 -123 0
-104 -124 0
-105 -125 0
-426 -436 0
-427 -437 0
-428 -438 0
-429 -439 0
-430 -440 0
-281 -291 0
-282 -292 0
-283 -293 0
-284 -294 0
-285 -295 0
-186 -196 0
-187 -197 0
-188 -198 0
-189 -199 0
-190 -200 0
-276 -286 0
-277 -287 0
-278 -288 0
-279 -289 0
-280 -290 0
-301 -321 0
-302 -322 0
-303 -323 0
-304 -324 0
-305 -325 0
-196 -211 0
-197 -212 0
-198 -213 0
-199 -214 0
-200 -215 0
-91 -106 0
-92 -107 0
-93 -108 0
-94 -109 0
-95 -110 0
-221 -226 0
-222 -227 0
-223 -228 0
-224 -229 0
-225 -230 0
-256 -261 0
-257 -262 0
-258 -263 0
-259 -264 0
-260 -265 0
-161 -181 0
-162 -182 0
-163 -183 0
-164 -184 0
-165 -185 0
-296 -306 0
-297 -307 0
-298 -308 0
-299 -309 0
-300 -310 0
-241 -261 0
-242 -262 0
-243 -263 0
-244 -264 0
-245 -265 0
-431 -441 0
-432 -442 0
-433 -443 0
-434 -444 0
-435 -445 0
-1 -6 0
-2 -7 0
-3 -8 0
-4 -9 0
-5 -10 0
-406 -416 0
-407 -417 0
-408 -418 0
-409 -419 0
-410 -420 0
-31 -46 0
-32 -47 0
-33 -48 0
-34 -49 0
-35 -50 0
-461 -476 0
-462 -477 0
-463 -478 0
-464 -479 0
-465 -480 0
-61 -76 0
-62 -77 0
-63 -78 0
-64 -79 0
-65 -80 0
-131 -141 0
-132 -142 0
-133 -143 0
-134 -144 0
-135 -145 0
-461 -471 0
-462 -472 0
-463 -473 0
-464 -474 0
-465 -475 0
-221 -236 0
-222 -237 0
-223 -238 0
-224 -239 0
-225 -240 0
-21 -26 0
-22 -27 0
-23 -28 0
-24 -29 0
-25 -30 0
-226 -241 0
-227 -242 0
-228 -243 0
-229 -244 0
-230 -245 0
-316 -336 0
-317 -337 0
-318 -338 0
-319 -339 0
-320 -340 0
-166 -181 0
-167 -182 0
-168 -183 0
-169 -184 0
-170 -185 0
-156 -176 0
-157 -177 0
-158 -178 0
-159 -179 0
-160 -180 0
-116 -131 0
-117 -132 0
-118 -133 0
-119 -134 0
-120 -135 0
-96 -116 0
-97 -117 0
-98 -118 0
-99 -119 0
-100 -120 0
-481 -486 0
-482 -487 0
-483 -488 0
-484 -489 0
-485 -490 0
-326 -341 0
-327 -342 0
-328 -343 0
-329 -344 0
-330 -345 0
-441 -456 0
-442 -457 0
-443 -458 0
-444 -459 0
-445 -460 0
-51 -61 0
-52 -62 0
-53 -63 0
-54 -64 0
-55 -65 0
-366 -381 0
-367 -382 0
-368 -383 0
-369 -384 0
-370 -385 0
-366 -386 0
-367 -387 0
-368 -388 0
-369 -389 0
-370 -390 0
-106 -116 0
-107 -117 0
-108 -118 0
-109 -119 0
-110 -120 0
-291 -296 0
-292 -297 0
-293 -298 0
-294 -299 0
-295 -300 0
-146 -166 0
-147 -167 0
-148 -168 0
-149 -169 0
-150 -170 0
-311 -316 0
-312 -317 0
-313 -318 0
-314 -319 0
-315 -320 0
-256 -266 0
-257 -267 0
-258 -268 0
-259 -269 0
-260 -270 0
-351 -366 0
-352 -367 0
-353 -368 0
-354 -369 0
-355 -370 0
-196 -201 0
-197 -202 0
-198 -203 0
-199 -204 0
-200 -205 0
-441 -461 0
-442 -462 0
-443 -463 0
-444 -464 0
-445 -465 0
-251 -271 0
-252 -272 0
-253 -273 0
-254 -274 0
-255 -275 0
-166 -186 0
-167 -187 0
-168 -188 0
-169 -189 0
-170 -190 0
-451 -471 0
-452 -472 0
-453 -473 0
-454 -474 0
-455 -475 0
-261 -276 0
-262 -277 0
-263 -278 0
-264 -279 0
-265 -280 0
-36 -56 0
-37 -57 0
-38 -58 0
-39 -59 0
-40 -60 0
-86 -96 0
-87 -97 0
-88 -98 0
-89 -99 0
-90 -100 0
-6 -486 0
-7 -487 0
-8 -488 0
-9 -489 0
-10 -490 0
-471 -491 0
-472 -492 0
-473 -493 0
-474 -494 0
-475 -495 0
-6 -26 0
-7 -27 0
-8 -28 0
-9 -29 0
-10 -30 0
-6 -11 0
-7 -12 0
-8 -13 0
-9 -14 0
-10 -15 0
-286 -301 0
-287 -302 0
-288 -303 0
-289 -304 0
-290 -305 0
-331 -341 0
-332 -342 0
-333 -343 0
-334 -344 0
-335 -345 0
-41 -51 0
-42 -52 0
-43 -53 0
-44 -54 0
-45 -55 0
-126 -136 0
-127 -137 0
-128 -138 0
-129 -139 0
-130 -140 0
-416 -436 0
-417 -437 0
-418 -438 0
-419 -439 0
-420 -440 0
-246 -251 0
-247 -252 0
-248 -253 0
-249 -254 0
-250 -255 0
-406 -421 0
-407 -422 0
-408 -423 0
-409 -424 0
-410 -425 0
-456 -476 0
-457 -477 0
-458 -478 0
-459 -479 0
-460 -480 0
-186 -191 0
-187 -192 0
-188 -193 0
-189 -194 0
-190 -195 0
-421 -441 0
-422 -442 0
-423 -443 0
-424 -444 0
-425 -445 0
-116 -126 0
-117 -127 0
-118 -128 0
-119 -129 0
-120 -130 0
-341 -346 0
-342 -347 0
-343 -348 0
-344 -349 0
-345 -350 0
-11 -26 0
-12 -27 0
-13 -28 0
-14 -29 0
-15 -30 0
-121 -136 0
-122 -137 0
-123 -138 0
-124 -139 0
-125 -140 0
-396 -401 0
-397 -402 0
-398 -403 0
-399 -404 0
-400 -405 0
-426 -441 0
-427 -442 0
-428 -443 0
-429 -444 0
-430 -445 0
-106 -121 0
-107 -122 0
-108 -123 0
-109 -124 0
-110 -125 0
-71 -86 0
-72 -87 0
-73 -88 0
-74 -89 0
-75 -90 0
-206 -216 0
-207 -217 0
-208 -218 0
-209 -219 0
-210 -220 0
-51 -71 0
-52 -72 0
-53 -73 0
-54 -74 0
-55 -75 0
-61 -81 0
-62 -82 0
-63 -83 0
-64 -84 0
-65 -85 0
-311 -331 0
-312 -332 0
-313 -333 0
-314 -334 0
-315 -335 0
-16 -26 0
-17 -27 0
-18 -28 0
-19 -29 0
-20 -30 0
-306 -326 0
-307 -327 0
-308 -328 0
-309 -329 0
-310 -330 0
-321 -341 0
-322 -342 0
-323 -343 0
-324 -344 0
-325 -345 0
-1 -11 0
-2 -12 0
-3 -13 0
-4 -14 0
-5 -15 0
-26 -41 0
-27 -42 0
-28 -43 0
-29 -44 0
-30 -45 0
-336 -486 0
-337 -487 0
-338 -488 0
-339 -489 0
-340 -490 0
-31 -71 0
-32 -72 0
-33 -73 0
-34 -74 0
-35 -75 0
-226 -446 0
-227 -447 0
-228 -448 0
-229 -449 0
-230 -450 0
-96 -446 0
-97 -447 0
-98 -448 0
-99 -449 0
-100 -450 0
-201 -476 0
-202 -477 0
-203 -478 0
-204 -479 0
-205 -480 0
-316 -451 0
-317 -452 0
-318 -453 0
-319 -454 0
-320 -455 0
-46 -381 0
-47 -382 0
-48 -383 0
-49 -384 0
-50 -385 0
-81 -271 0
-82 -272 0
-83 -273 0
-84 -274 0
-85 -275 0
-291 -471 0
-292 -472 0
-293 -473 0
-294 -474 0
-295 -475 0
-381 -481 0
-382 -482 0
-383 -483 0
-384 -484 0
-385 -485 0
-121 -181 0
-122 -182 0
-123 -183 0
-124 -184 0
-125 -185 0
-256 -491 0
-257 -492 0
-258 -493 0
-259 -494 0
-260 -495 0
-46 -476 0
-47 -477 0
-48 -478 0
-49 -479 0
-50 -480 0
-196 -256 0
-197 -257 0
-198 -258 0
-199 -259 0
-200 -260 0
-61 -321 0
-62 -322 0
-63 -323 0
-64 -324 0
-65 -325 0
-46 -81 0
-47 -82 0
-48 -83 0
-49 -84 0
-50 -85 0
-106 -386 0
-107 -387 0
-108 -388 0
-109 -389 0
-110 -390 0
-81 -281 0
-82 -282 0
-83 -283 0
-84 -284 0
-85 -285 0
-196 -276 0
-197 -277 0
-198 -278 0
-199 -279 0
-200 -280 0
-356 -461 0
-357 -462 0
-358 -463 0
-359 -464 0
-360 -465 0
-91 -241 0
-92 -242 0
-93 -243 0
-94 -244 0
-95 -245 0
-36 -431 0
-37 -432 0
-38 -433 0
-39 -434 0
-40 -435 0
-256 -331 0
-257 -332 0
-258 -333 0
-259 -334 0
-260 -335 0
-106 -441 0
-107 -442 0
-108 -443 0
-109 -444 0
-110 -445 0
-66 -256 0
-67 -257 0
-68 -258 0
-69 -259 0
-70 -260 0
-196 -431 0
-197 -432 0
-198 -433 0
-199 -434 0
-200 -435 0
-431 -491 0
-432 -492 0
-433 -493 0
-434 -494 0
-435 -495 0
-161 -216 0
-162 -217 0
-163 -218 0
-164 -219 0
-165 -220 0
-76 -166 0
-77 -167 0
-78 -168 0
-79 -169 0
-80 -170 0
-36 -176 0
-37 -177 0
-38 -178 0
-39 -179 0
-40 -180 0
-151 -316 0
-152 -317 0
-153 -318 0
-154 -319 0
-155 -320 0
-151 -176 0
-152 -177 0
-153 -178 0
-154 -179 0
-155 -180 0
-136 -176 0
-137 -177 0
-138 -178 0
-139 -179 0
-140 -180 0
-361 -436 0
-362 -437 0
-363 -438 0
-364 -439 0
-365 -440 0
-276 -331 0
-277 -332 0
-278 -333 0
-279 -334 0
-280 -335 0
-156 -411 0
-157 -412 0
-158 -413 0
-159 -414 0
-160 -415 0
-106 -306 0
-107 -307 0
-108 -308 0
-109 -309 0
-110 -310 0
-396 -496 0
-397 -497 0
-398 -498 0
-399 -499 0
-400 -500 0
-196 -246 0
-197 -247 0
-198 -248 0
-199 -249 0
-200 -250 0
-156 -386 0
-157 -387 0
-158 -388 0
-159 -389 0
-160 -390 0
-331 -426 0
-332 -427 0
-333 -428 0
-334 -429 0
-335 -430 0
-106 -266 0
-107 -267 0
-108 -268 0
-109 -269 0
-110 -270 0
-51 -121 0
-52 -122 0
-53 -123 0
-54 -124 0
-55 -125 0
-206 -411 0
-207 -412 0
-208 -413 0
-209 -414 0
-210 -415 0
-151 -471 0
-152 -472 0
-153 -473 0
-154 -474 0
-155 -475 0
-271 -461 0
-272 -462 0
-273 -463 0
-274 -464 0
-275 -465 0
-281 -436 0
-282 -437 0
-283 -438 0
-284 -439 0
-285 -440 0
-176 -401 0
-177 -402 0
-178 -403 0
-179 -404 0
-180 -405 0
-236 -326 0
-237 -327 0
-238 -328 0
-239 -329 0
-240 -330 0
-31 -256 0
-32 -257 0
-33 -258 0
-34 -259 0
-35 -260 0
-166 -241 0
-167 -242 0
-168 -243 0
-169 -244 0
-170 -245 0
-106 -166 0
-107 -167 0
-108 -168 0
-109 -169 0
-110 -170 0
-231 -266 0
-232 -267 0
-233 -268 0
-234 -269 0
-235 -270 0
-186 -231 0
-187 -232 0
-188 -233 0
-189 -234 0
-190 -235 0
-21 -46 0
-22 -47 0
-23 -48 0
-24 -49 0
-25 -50 0
-166 -306 0
-167 -307 0
-168 -308 0
-169 -309 0
-170 -310 0
-106 -251 0
-107 -252 0
-108 -253 0
-109 -254 0
-110 -255 0
-151 -406 0
-152 -407 0
-153 -408 0
-154 -409 0
-155 -410 0
-101 -286 0
-102 -287 0
-103 -288 0
-104 -289 0
-105 -290 0
-286 -391 0
-287 -392 0
-288 -393 0
-289 -394 0
-290 -395 0
-31 -336 0
-32 -337 0
-33 -338 0
-34 -339 0
-35 -340 0
-41 -456 0
-42 -457 0
-43 -458 0
-44 -459 0
-45 -460 0
-36 -461 0
-37 -462 0
-38 -463 0
-39 -464 0
-40 -465 0
-81 -196 0
-82 -197 0
-83 -198 0
-84 -199 0
-85 -200 0
-46 -266 0
-47 -267 0
-48 -268 0
-49 -269 0
-50 -270 0
-46 -416 0
-47 -417 0
-48 -418 0
-49 -419 0
-50 -420 0
-146 -311 0
-147 -312 0
-148 -313 0
-149 -314 0
-150 -315 0
-126 -321 0
-127 -322 0
-128 -323 0
-129 -324 0
-130 -325 0
-216 -461 0
-217 -462 0
-218 -463 0
-219 -464 0
-220 -465 0
-1 -476 0
-2 -477 0
-3 -478 0
-4 -479 0
-5 -480 0
-21 -231 0
-22 -232 0
-23 -233 0
-24 -234 0
-25 -235 0
-326 -406 0
-327 -407 0
-328 -408 0
-329 -409 0
-330 -410 0
-116 -291 0
-117 -292 0
-118 -293 0
-119 -294 0
-120 -295 0
-86 -331 0
-87 -332 0
-88 -333 0
-89 -334 0
-90 -335 0
-426 -456 0
-427 -457 0
-428 -458 0
-429 -459 0
-430 -460 0
-11 -331 0
-12 -332 0
-13 -333 0
-14 -334 0
-15 -335 0
-216 -326 0
-217 -327 0
-218 -328 0
-219 -329 0
-220 -330 0
-146 -351 0
-147 -352 0
-148 -353 0
-149 -354 0
-150 -355 0
-226 -411 0
-227 -412 0
-228 -413 0
-229 -414 0
-230 -415 0
-71 -451 0
-72 -452 0
-73 -453 0
-74 -454 0
-75 -455 0
-51 -151 0
-52 -152 0
-53 -153 0
-54 -154 0
-55 -155 0
-211 -411 0
-212 -412 0
-213 -413 0
-214 -414 0
-215 -415 0
-206 -496 0
-207 -497 0
-208 -498 0
-209 -499 0
-210 -500 0
-71 -256 0
-72 -257 0
-73 -258 0
-74 -259 0
-75 -260 0
-336 -416 0
-337 -417 0
-338 -418 0
-339 -419 0
-340 -420 0
-236 -471 0
-237 -472 0
-238 -473 0
-239 -474 0
-240 -475 0
-421 -466 0
-422 -467 0
-423 -468 0
-424 -469 0
-425 -470 0
-141 -491 0
-142 -492 0
-143 -493 0
-144 -494 0
-145 -495 0
-136 -191 0
-137 -192 0
-138 -193 0
-139 -194 0
-140 -195 0
-6 -81 0
-7 -82 0
-8 -83 0
-9 -84 0
-10 -85 0
-6 -321 0
-7 -322 0
-8 -323 0
-9 -324 0
-10 -325 0
-201 -441 0
-202 -442 0
-203 -443 0
-204 -444 0
-205 -445 0
-1 -396 0
-2 -397 0
-3 -398 0
-4 -399 0
-5 -400 0
-36 -436 0
-37 -437 0
-38 -438 0
-39 -439 0
-40 -440 0
-46 -166 0
-47 -167 0
-48 -168 0
-49 -169 0
-50 -170 0
-211 -351 0
-212 -352 0
-213 -353 0
-214 -354 0
-215 -355 0
-111 -366 0
-112 -367 0
-113 -368 0
-114 -369 0
-115 -370 0
-186 -331 0
-187 -332 0
-188 -333 0
-189 -334 0
-190 -335 0
-126 -171 0
-127 -172 0
-128 -173 0
-129 -174 0
-130 -175 0
-31 -166 0
-32 -167 0
-33 -168 0
-34 -169 0
-35 -170 0
-221 -446 0
-222 -447 0
-223 -448 0
-224 -449 0
-225 -450 0
-186 -296 0
-187 -297 0
-188 -298 0
-189 -299 0
-190 -300 0
-236 -291 0
-237 -292 0
-238 -293 0
-239 -294 0
-240 -295 0
-6 -311 0
-7 -312 0
-8 -313 0
-9 -314 0
-10 -315 0
-1 -411 0
-2 -412 0
-3 -413 0
-4 -414 0
-5 -415 0
-76 -346 0
-77 -347 0
-78 -348 0
-79 -349 0
-80 -350 0
-266 -356 0
-267 -357 0
-268 -358 0
-269 -359 0
-270 -360 0
-61 -411 0
-62 -412 0
-63 -413 0
-64 -414 0
-65 -415 0
-126 -386 0
-127 -387 0
-128 -388 0
-129 -389 0
-130 -390 0
-196 -421 0
-197 -422 0
-198 -423 0
-199 -424 0
-200 -425 0
-101 -196 0
-102 -197 0
-103 -198 0
-104 -199 0
-105 -200 0
-301 -411 0
-302 -412 0
-303 -413 0
-304 -414 0
-305 -415 0
-96 -286 0
-97 -287 0
-98 -288 0
-99 -289 0
-100 -290 0
-366 -391 0
-367 -392 0
-368 -393 0
-369 -394 0
-370 -395 0
-66 -216 0
-67 -217 0
-68 -218 0
-69 -219 0
-70 -220 0
-336 -386 0
-337 -387 0
-338 -388 0
-339 -389 0
-340 -390 0
-216 -451 0
-217 -452 0
-218 -453 0
-219 -454 0
-220 -455 0
-41 -136 0
-42 -137 0
-43 -138 0
-44 -139 0
-45 -140 0
-226 -336 0
-227 -337 0
-228 -338 0
-229 -339 0
-230 -340 0
-116 -391 0
-117 -392 0
-118 -393 0
-119 -394 0
-120 -395 0
-156 -321 0
-157 -322 0
-158 -323 0
-159 -324 0
-160 -325 0
-111 -456 0
-112 -457 0
-113 -458 0
-114 -459 0
-115 -460 0
-296 -326 0
-297 -327 0
-298 -328 0
-299 -329 0
-300 -330 0
-1 -296 0
-2 -297 0
-3 -298 0
-4 -299 0
-5 -300 0
-66 -251 0
-67 -252 0
-68 -253 0
-69 -254 0
-70 -255 0
-231 -466 0
-232 -467 0
-233 -468 0
-234 -469 0
-235 -470 0
-111 -491 0
-112 -492 0
-113 -493 0
-114 -494 0
-115 -495 0
-146 -321 0
-147 -322 0
-148 -323 0
-149 -324 0
-150 -325 0
-66 -396 0
-67 -397 0
-68 -398 0
-69 -399 0
-70 -400 0
-71 -286 0
-72 -287 0
-73 -288 0
-74 -289 0
-75 -290 0
-236 -321 0
-237 -322 0
-238 -323 0
-239 -324 0
-240 -325 0
-221 -336 0
-222 -337 0
-223 -338 0
-224 -339 0
-225 -340 0
-231 -401 0
-232 -402 0
-233 -403 0
-234 -404 0
-235 -405 0
-416 -441 0
-417 -442 0
-418 -443 0
-419 -444 0
-420 -445 0
-111 -261 0
-112 -262 0
-113 -263 0
-114 -264 0
-115 -265 0
-161 -251 0
-162 -252 0
-163 -253 0
-164 -254 0
-165 -255 0
-221 -391 0
-222 -392 0
-223 -393 0
-224 -394 0
-225 -395 0
-316 -406 0
-317 -407 0
-318 -408 0
-319 -409 0
-320 -410 0
-456 -481 0
-457 -482 0
-458 -483 0
-459 -484 0
-460 -485 0
-71 -351 0
-72 -352 0
-73 -353 0
-74 -354 0
-75 -355 0
-286 -371 0
-287 -372 0
-288 -373 0
-289 -374 0
-290 -375 0
-166 -456 0
-167 -457 0
-168 -458 0
-169 -459 0
-170 -460 0
-371 -451 0
-372 -452 0
-373 -453 0
-374 -454 0
-375 -455 0
-191 -366 0
-192 -367 0
-193 -368 0
-194 -369 0
-195 -370 0
-306 -396 0
-307 -397 0
-308 -398 0
-309 -399 0
-310 -400 0
-156 -466 0
-157 -467 0
-158 -468 0
-159 -469 0
-160 -470 0
-181 -436 0
-182 -437 0
-183 -438 0
-184 -439 0
-185 -440 0
-276 -471 0
-277 -472 0
-278 -473 0
-279 -474 0
-280 -475 0
-261 -426 0
-262 -427 0
-263 -428 0
-264 -429 0
-265 -430 0
-206 -406 0
-207 -407 0
-208 -408 0
-209 -409 0
-210 -410 0
-11 -191 0
-12 -192 0
-13 -193 0
-14 -194 0
-15 -195 0
-61 -391 0
-62 -392 0
-63 -393 0
-64 -394 0
-65 -395 0
-31 -476 0
-32 -477 0
-33 -478 0
-34 -479 0
-35 -480 0
-26 -406 0
-27 -407 0
-28 -408 0
-29 -409 0
-30 -410 0
-376 -456 0
-377 -457 0
-378 -458 0
-379 -459 0
-380 -460 0
-91 -471 0
-92 -472 0
-93 -473 0
-94 -474 0
-95 -475 0
-111 -151 0
-112 -152 0
-113 -153 0
-114 -154 0
-115 -155 0
-81 -211 0
-82 -212 0
-83 -213 0
-84 -214 0
-85 -215 0
-126 -326 0
-127 -327 0
-128 -328 0
-129 -329 0
-130 -330 0
-171 -421 0
-172 -422 0
-173 -423 0
-174 -424 0
-175 -425 0
-316 -456 0
-317 -457 0
-318 -458 0
-319 -459 0
-320 -460 0
-181 -251 0
-182 -252 0
-183 -253 0
-184 -254 0
-185 -255 0
-51 -126 0
-52 -127 0
-53 -128 0
-54 -129 0
-55 -130 0
-46 -351 0
-47 -352 0
-48 -353 0
-49 -354 0
-50 -355 0
-206 -431 0
-207 -432 0
-208 -433 0
-209 -434 0
-210 -435 0
-21 -306 0
-22 -307 0
-23 -308 0
-24 -309 0
-25 -310 0
-121 -376 0
-122 -377 0
-123 -378 0
-124 -379 0
-125 -380 0
-196 -361 0
-197 -362 0
-198 -363 0
-199 -364 0
-200 -365 0
-81 -236 0
-82 -237 0
-83 -238 0
-84 -239 0
-85 -240 0
-196 -491 0
-197 -492 0
-198 -493 0
-199 -494 0
-200 -495 0
-171 -316 0
-172 -317 0
-173 -318 0
-174 -319 0
-175 -320 0
-86 -176 0
-87 -177 0
-88 -178 0
-89 -179 0
-90 -180 0
-161 -416 0
-162 -417 0
-163 -418 0
-164 -419 0
-165 -420 0
-81 -176 0
-82 -177 0
-83 -178 0
-84 -179 0
-85 -180 0
-386 -426 0
-387 -427 0
-388 -428 0
-389 -429 0
-390 -430 0
-251 -331 0
-252 -332 0
-253 -333 0
-254 -334 0
-255 -335 0
-61 -481 0
-62 -482 0
-63 -483 0
-64 -484 0
-65 -485 0
-171 -326 0
-172 -327 0
-173 -328 0
-174 -329 0
-175 -330 0
-341 -481 0
-342 -482 0
-343 -483 0
-344 -484 0
-345 -485 0
-256 -291 0
-257 -292 0
-258 -293 0
-259 -294 0
-260 -295 0
-411 -476 0
-412 -477 0
-413 -478 0
-414 -479 0
-415 -480 0
-116 -211 0
-117 -212 0
-118 -213 0
-119 -214 0
-120 -215 0
-116 -216 0
-117 -217 0
-118 -218 0
-119 -219 0
-120 -220 0
